nNurses = 132;
nHours = 30;
minHours = 3;
maxHours = 11;
maxConsec = 8;
maxPresence = 20;
demand = [28, 24, 24, 21, 16, 18, 16, 14, 9, 5, 7, 11, 15, 10, 12, 12, 7, 11, 8, 13, 12, 8, 12, 17, 14, 19, 14, 19, 16, 16];
